p wcnf 193 290 291 
1 74 76 0 
1 15 -139 0 
1 104 188 0 
1 140 -156 0 
1 -97 -116 0 
1 173 18 0 
1 -157 100 0 
1 45 -189 0 
1 -40 -111 0 
1 145 67 0 
1 166 -16 0 
1 49 142 0 
1 51 18 0 
1 139 -118 0 
1 48 -182 0 
1 -178 -94 0 
1 -42 90 0 
1 -114 51 0 
1 38 -45 0 
1 88 30 0 
1 -123 -142 0 
1 -45 -98 0 
1 46 -177 0 
1 107 -146 0 
1 -67 104 0 
1 142 33 0 
1 113 -39 0 
1 106 124 0 
1 182 -23 0 
1 11 2 0 
1 54 -149 0 
1 -141 -31 0 
1 -67 152 0 
1 41 28 0 
1 20 116 0 
1 86 -114 0 
1 54 63 0 
1 126 190 0 
1 -47 19 0 
1 -108 -111 0 
1 100 40 0 
1 -91 -151 0 
1 156 -22 0 
1 -44 -145 0 
1 46 49 0 
1 -139 147 0 
1 -2 -125 0 
1 -132 160 0 
1 -120 8 0 
1 164 -49 0 
1 -178 174 0 
1 -54 4 0 
1 -32 -46 0 
1 164 87 0 
1 -161 147 0 
1 -5 187 0 
1 -43 -33 0 
1 174 -60 0 
1 -45 182 0 
1 -36 -87 0 
1 -42 123 0 
1 3 -61 0 
1 138 -13 0 
1 -168 -63 0 
1 3 134 0 
1 -97 -7 0 
1 -18 -162 0 
1 -56 -27 0 
1 22 -115 0 
1 -26 104 0 
1 107 177 0 
1 22 -67 0 
1 -124 98 0 
1 109 -143 0 
1 20 61 0 
1 157 -190 0 
1 183 -171 0 
1 -67 83 0 
1 -4 -62 0 
1 97 39 0 
1 64 42 0 
1 -25 85 0 
1 122 12 0 
1 -58 61 0 
1 28 121 0 
1 157 177 0 
1 -51 -35 0 
1 -145 86 0 
1 133 -184 0 
1 -120 60 0 
1 -8 -53 0 
1 -54 46 0 
1 -74 89 0 
1 26 -83 0 
1 121 -15 0 
1 103 -143 0 
1 -122 55 0 
1 6 169 0 
1 179 -158 0 
1 -140 -167 0 
1 179 16 0 
1 64 -128 0 
1 14 182 0 
1 -107 136 0 
1 140 110 0 
1 -13 -159 0 
1 -139 -121 0 
1 85 -146 0 
1 30 70 0 
1 -8 -74 0 
1 -158 47 0 
1 158 60 0 
1 173 -171 0 
1 108 -189 0 
1 -6 23 0 
1 -48 -34 0 
1 -102 76 0 
1 121 -85 0 
1 -165 -141 0 
1 124 -17 0 
1 57 -43 0 
1 11 -18 0 
1 21 -170 0 
1 52 9 0 
1 165 152 0 
1 56 109 0 
1 130 6 0 
1 -149 -54 0 
1 -38 -74 0 
1 141 162 0 
1 134 -90 0 
1 -44 -52 0 
1 16 112 0 
1 147 -95 0 
1 135 83 0 
1 -98 -17 0 
1 -18 -31 0 
1 -3 -142 0 
1 -14 -100 0 
1 111 -83 0 
1 147 87 0 
1 -79 57 0 
1 134 -141 0 
1 83 -50 0 
1 26 -25 0 
1 9 100 0 
1 47 76 0 
1 50 20 0 
1 190 36 0 
1 47 -33 0 
1 179 -132 0 
1 -95 131 0 
1 47 91 0 
1 55 -165 0 
1 129 -95 0 
1 -65 86 0 
1 -100 -60 0 
1 85 -186 0 
1 -75 117 0 
1 -26 12 0 
1 -171 -14 0 
1 -35 26 0 
1 -91 -138 0 
1 -158 167 0 
1 -26 166 0 
1 85 -57 0 
1 -129 -37 0 
1 -117 -61 0 
1 -123 -161 0 
1 123 182 0 
1 -4 160 0 
1 192 33 0 
1 119 103 0 
1 -169 29 0 
1 119 -11 0 
1 117 -118 0 
1 -171 78 0 
1 -126 97 0 
1 100 169 0 
1 -48 169 0 
1 55 94 0 
1 -112 -47 0 
1 120 145 0 
1 -119 174 0 
1 138 -48 0 
1 50 -77 0 
1 -158 -41 0 
1 -42 -39 0 
1 99 13 0 
1 -54 124 0 
1 166 -28 0 
1 166 152 0 
1 -155 -145 0 
1 -41 46 0 
1 -21 -178 0 
1 186 -128 0 
1 122 1 0 
1 161 -20 0 
1 -91 -53 0 
1 -42 -169 0 
1 -42 122 0 
1 -36 -113 0 
1 169 109 0 
1 141 -114 0 
1 -146 -36 0 
1 107 -67 0 
1 188 84 0 
1 -113 -130 0 
1 28 83 0 
1 29 -48 0 
1 -47 -87 0 
1 -158 -192 0 
1 163 108 0 
1 187 98 0 
1 -84 -151 0 
1 108 -11 0 
1 55 -123 0 
1 -123 -178 0 
1 76 -67 0 
1 -9 -123 0 
1 40 27 0 
1 158 80 0 
1 -131 -48 0 
1 -57 127 0 
1 -8 -115 0 
1 -185 93 0 
1 81 72 0 
1 -32 108 0 
1 -179 -103 0 
1 -113 -35 0 
1 157 -63 0 
1 136 -18 0 
1 99 180 0 
1 88 130 0 
1 -66 168 0 
1 -68 131 0 
1 131 -113 0 
1 -81 95 0 
1 60 -15 0 
1 115 -178 0 
1 177 -106 0 
1 -164 173 0 
1 -56 27 0 
1 -99 58 0 
1 190 10 0 
1 129 71 0 
1 -168 -1 0 
1 5 108 0 
1 -161 -66 0 
1 -53 -102 0 
1 54 -153 0 
1 -167 50 0 
1 -175 -22 0 
1 123 88 0 
1 -150 -140 0 
1 178 185 0 
1 -140 2 0 
1 -167 -188 0 
1 -36 -128 0 
1 104 121 0 
1 67 -141 0 
1 40 -176 0 
1 115 -190 0 
1 -126 -185 0 
1 97 -160 0 
1 10 30 0 
1 107 10 0 
1 55 179 0 
1 -40 184 0 
1 145 15 0 
1 143 -89 0 
1 93 180 0 
1 -51 84 0 
1 101 181 0 
1 -98 61 0 
1 84 100 0 
1 -155 62 0 
1 -120 70 0 
1 -142 72 0 
1 39 70 0 
1 93 -170 0 
1 12 116 0 
1 -105 97 0 
1 -53 -28 0 
1 -31 130 0 
1 -113 190 0 
1 188 193 0 
1 106 146 0 
1 -33 -20 0 
1 143 -192 0 
